
Gurobi 11.0.3 (linux64) logging started Sun Aug 24 14:33:25 2025

Set parameter LogFile to value "/home/yihong/Coding/OR_SUC/SUC_ALSO_results_bigM100000_thread4/case24_ieee_rts_theta0.1_epsilon0.4_gurobi_seed250000_num_gen10_N_WDR50_load_scaling_factor2_exact_T2quadra_cost.txt"
Set parameter TimeLimit to value 3600
Gurobi Optimizer version 11.0.3 build v11.0.3rc0 (linux64 - "Ubuntu 20.04.6 LTS")

CPU model: AMD EPYC 7532 32-Core Processor, instruction set [SSE2|AVX|AVX2]
Thread count: 64 physical cores, 128 logical processors, using up to 4 threads

Academic license 2399124 - for non-commercial use only - registered to yi___@ed.ac.uk
Optimize a model with 3721 rows, 421 columns and 73414 nonzeros
Model fingerprint: 0x6b607d4d
Model has 20 quadratic constraints
Variable types: 351 continuous, 70 integer (70 binary)
Coefficient statistics:
  Matrix range     [4e-04, 1e+05]
  QMatrix range    [2e-03, 6e-03]
  QLMatrix range   [1e+00, 4e+02]
  Objective range  [1e+00, 1e+00]
  Bounds range     [1e+00, 1e+00]
  RHS range        [1e-01, 1e+05]
Presolve removed 2103 rows and 176 columns
Presolve time: 0.06s
Presolved: 1618 rows, 245 columns, 30843 nonzeros
Presolved model has 20 quadratic constraint(s)
Variable types: 175 continuous, 70 integer (70 binary)

Root relaxation: objective 1.260729e+03, 116 iterations, 0.01 seconds (0.02 work units)

    Nodes    |    Current Node    |     Objective Bounds      |     Work
 Expl Unexpl |  Obj  Depth IntInf | Incumbent    BestBd   Gap | It/Node Time

     0     0 1260.72856    0   30          - 1260.72856      -     -    0s
     0     0 1880.09024    0   42          - 1880.09024      -     -    0s
     0     0 1900.69337    0   40          - 1900.69337      -     -    0s
     0     0 23211.7630    0   43          - 23211.7630      -     -    0s
     0     0 44471.7824    0   48          - 44471.7824      -     -    0s
     0     0 56267.0586    0   38          - 56267.0586      -     -    0s
     0     0 56352.3266    0   36          - 56352.3266      -     -    0s
     0     0 56657.9979    0   25          - 56657.9979      -     -    0s
     0     0 56661.1797    0   25          - 56661.1797      -     -    0s
     0     0 56754.4884    0   27          - 56754.4884      -     -    0s
     0     0 56776.6787    0   27          - 56776.6787      -     -    0s
H    0     0                    58409.659502 56776.6787  2.80%     -    0s
     0     0 56776.6787    0   23 58409.6595 56776.6787  2.80%     -    0s
     0     0 56776.6787    0   23 58409.6595 56776.6787  2.80%     -    0s
     0     0 56776.6787    0   23 58409.6595 56776.6787  2.80%     -    0s
     0     0 56778.0532    0   23 58409.6595 56778.0532  2.79%     -    0s
H    0     0                    58080.763756 56781.7764  2.24%     -    0s
H    0     0                    57663.151332 56781.7764  1.53%     -    1s
H    0     0                    57472.126154 56781.7764  1.20%     -    1s
     0     0 56781.7764    0   32 57472.1262 56781.7764  1.20%     -    1s
     0     0 56781.7764    0   23 57472.1262 56781.7764  1.20%     -    1s
     0     0 56781.7764    0   22 57472.1262 56781.7764  1.20%     -    1s
     0     0 56781.7764    0   23 57472.1262 56781.7764  1.20%     -    1s
     0     0 56781.7764    0   26 57472.1262 56781.7764  1.20%     -    1s
     0     0 56781.7764    0   26 57472.1262 56781.7764  1.20%     -    1s
     0     0 56786.7486    0   23 57472.1262 56786.7486  1.19%     -    1s
     0     0 56786.7486    0   22 57472.1262 56786.7486  1.19%     -    1s
     0     0 56786.8755    0   22 57472.1262 56786.8755  1.19%     -    1s
     0     0 56786.8755    0   23 57472.1262 56786.8755  1.19%     -    1s
     0     0 56786.9105    0   22 57472.1262 56786.9105  1.19%     -    1s
     0     0 56786.9105    0   23 57472.1262 56786.9105  1.19%     -    1s
     0     0 56789.4898    0   23 57472.1262 56789.4898  1.19%     -    1s
H    0     0                    57469.089385 56789.4898  1.18%     -    1s
     0     2 56789.4898    0   23 57469.0894 56789.4898  1.18%     -    1s
H  127    99                    57459.340961 56854.8795  1.05%  16.7    1s
 14039  2555 57400.7884   24   20 57459.3410 57193.5533  0.46%  17.7    5s
*21802  1680              39    57454.891211 57282.9308  0.30%  17.8    7s

Cutting planes:
  Gomory: 15
  Implied bound: 1
  MIR: 58
  Flow cover: 142
  RLT: 56

Explored 25820 nodes (464581 simplex iterations) in 7.93 seconds (9.84 work units)
Thread count was 4 (of 128 available processors)

Solution count 5: 57454.9 57472.1 57663.2 ... 58409.7

Optimal solution found (tolerance 1.00e-03)
Best objective 5.745489121129e+04, best bound 5.741526714574e+04, gap 0.0690%
